25 50
1 2 4
1 6 5
2 3 5
2 7 2
3 4 5
3 8 4
4 5 5
4 9 3
5 10 2
6 7 4
6 11 1
7 8 5
7 12 4
8 9 3
8 13 1
9 10 4
9 14 4
10 15 2
11 12 2
11 16 5
12 13 4
12 17 5
13 14 5
13 18 4
14 15 5
14 19 5
15 20 1
16 17 1
16 21 2
17 18 2
17 22 1
18 19 5
18 23 5
19 20 5
19 24 4
20 25 3
21 22 2
22 23 4
23 24 1
24 25 5
1 21 1
2 22 1
3 23 3
4 24 3
5 25 2
1 5 1
6 10 5
11 15 1
16 20 4
21 25 3
